(set-logic ALL)
(declare-const BAV1 Bool)
(declare-const BAV2 Bool)
(declare-const BAV3 Bool)
(declare-const BAV4 Bool)
(declare-const BAV5 Bool)
(declare-const GEN3 Int)
(declare-const GEN2 Int)
(declare-const GEN1 Int)
(set-info :smt-lib-version 2.0)
(set-info :category "crafted")
(declare-fun x0 () (_ BitVec 10))
(declare-fun x1 () (_ BitVec 10))
(declare-fun x2 () (_ BitVec 10))
(declare-fun x3 () (_ BitVec 10))
(declare-fun x4 () (_ BitVec 10))
(declare-fun p1 () Bool)
(declare-fun p2 () Bool)
(declare-fun p3 () Bool)
(declare-fun v2 () Int)
(declare-fun a2 (Int) (_ BitVec 1024))
(declare-fun v3 () (_ BitVec 1024))
(declare-fun v4 () (_ BitVec 1024))
(declare-fun v5 () (_ BitVec 1024))
(assert (not (= (a2 (ite (=> (or (and (= (bvnor (bvnand (bvor (bvand x0 x1) x2) x3) x4) ((_ extract 9 0) v3)) p1) p2) p3) v2 GEN3)) (bvudiv (bvudiv v4 v5) (bvudiv (bvudiv v3 v4) (bvudiv v3 v5))))))
(assert (= BAV1 (= (a2 (ite (=> (or (and (= (bvnor (bvnand (bvor (bvand x0 x1) x2) x3) x4) ((_ extract 9 0) v3)) p1) p2) p3) v2 GEN3)) (bvudiv (bvudiv v4 v5) (bvudiv (bvudiv v3 v4) (bvudiv v3 v5))))))
(assert (= BAV2 (=> (or (and (= (bvnor (bvnand (bvor (bvand x0 x1) x2) x3) x4) ((_ extract 9 0) v3)) p1) p2) p3)))
(assert (= BAV3 (or (and (= (bvnor (bvnand (bvor (bvand x0 x1) x2) x3) x4) ((_ extract 9 0) v3)) p1) p2)))
(assert (= BAV4 (and (= (bvnor (bvnand (bvor (bvand x0 x1) x2) x3) x4) ((_ extract 9 0) v3)) p1)))
(assert (= BAV5 (= (bvnor (bvnand (bvor (bvand x0 x1) x2) x3) x4) ((_ extract 9 0) v3))))
(check-sat)
(get-model)
(exit)